This is Ipopt version 3.12.12, running with linear solver ma27.

Number of nonzeros in equality constraint Jacobian...:        0
Number of nonzeros in inequality constraint Jacobian.:        2
Number of nonzeros in Lagrangian Hessian.............:        0

Total number of variables............................:        2
                     variables with only lower bounds:        0
                variables with lower and upper bounds:        2
                     variables with only upper bounds:        0
Total number of equality constraints.................:        0
Total number of inequality constraints...............:        1
        inequality constraints with only lower bounds:        0
   inequality constraints with lower and upper bounds:        0
        inequality constraints with only upper bounds:        1

iter    objective    inf_pr   inf_du lg(mu)  ||d||  lg(rg) alpha_du alpha_pr  ls
   0  0.0000000e+00 1.21e+02 1.93e+00  -1.0 0.00e+00    -  0.00e+00 0.00e+00   0
   1  1.2361668e+00 0.00e+00 3.74e+00  -1.0 1.92e+00    -  8.93e-01 1.00e+00h  1
   2  8.7323494e-01 0.00e+00 4.89e-01  -1.0 5.52e-01    -  9.90e-01 1.00e+00h  1
   3  5.9877833e-01 0.00e+00 8.66e-01  -1.0 4.17e+00    -  9.90e-01 1.00e+00f  1
   4  4.1716104e-01 0.00e+00 9.16e-01  -1.0 3.68e+00    -  9.90e-01 1.00e+00h  1
   5  2.6706204e-02 0.00e+00 2.09e+00  -1.0 9.88e+00    -  1.00e+00 1.00e+00h  1
   6 -1.5523175e+00 0.00e+00 3.04e+00  -1.0 5.35e+01    -  1.00e+00 7.41e-01f  1
   7 -1.7114721e+00 0.00e+00 6.02e+00  -1.0 7.84e+00    -  1.00e+00 3.53e-01h  1
   8 -1.8141597e+00 0.00e+00 5.92e-03  -1.0 2.94e+00    -  1.00e+00 1.00e+00f  1
   9 -2.0057077e+00 0.00e+00 8.30e-03  -2.5 3.63e+00    -  1.00e+00 1.00e+00f  1
iter    objective    inf_pr   inf_du lg(mu)  ||d||  lg(rg) alpha_du alpha_pr  ls
  10 -2.0124084e+00 0.00e+00 9.51e-05  -3.8 1.35e-01    -  1.00e+00 1.00e+00h  1
  11 -2.0126732e+00 0.00e+00 5.03e-03  -5.7 5.03e-03    -  1.00e+00 1.00e+00f  1
  12 -2.0127041e+00 0.00e+00 3.10e-02  -5.7 6.66e-04    -  1.00e+00 9.65e-01f  1
  13 -2.0127018e+00 0.00e+00 1.28e-10  -5.7 5.04e-05    -  1.00e+00 1.00e+00f  1
  14 -2.0127054e+00 0.00e+00 1.27e-10  -7.0 6.72e-05    -  1.00e+00 1.00e+00f  1

Number of Iterations....: 14

                                   (scaled)                 (unscaled)
Objective...............:  -2.0127053570202547e+00   -2.0127053570202547e+00
Dual infeasibility......:   1.2732862737701205e-10    1.2732862737701205e-10
Constraint violation....:   0.0000000000000000e+00    0.0000000000000000e+00
Complementarity.........:   9.0909519358821487e-08    9.0909519358821487e-08
Overall NLP error.......:   9.0909519358821487e-08    9.0909519358821487e-08


Number of objective function evaluations             = 15
Number of objective gradient evaluations             = 15
Number of equality constraint evaluations            = 0
Number of inequality constraint evaluations          = 15
Number of equality constraint Jacobian evaluations   = 0
Number of inequality constraint Jacobian evaluations = 15
Number of Lagrangian Hessian evaluations             = 0
Total CPU secs in IPOPT (w/o function evaluations)   =      0.045
Total CPU secs in NLP function evaluations           =      0.529

EXIT: Optimal Solution Found.
